(set-info :Origin "This instance was generated by: BanditFuzz-- an RL fuzzer for SMT solvers" )
(set-info :Author "Joe Scott, Fed Mora, Vijay Ganesh" )
(set-info :Contact "Joe Scott, joseph.scott@uwaterloo.ca")
(set-logic QF_BV)
(declare-const bool_0 Bool)
(declare-const bool_1 Bool)
(declare-const bool_2 Bool)
(declare-const bool_3 Bool)
(declare-const bool_4 Bool)
(declare-const bv_0 (_ BitVec 32))
(declare-const bv_1 (_ BitVec 32))
(declare-const bv_2 (_ BitVec 32))
(declare-const bv_3 (_ BitVec 32))
(declare-const bv_4 (_ BitVec 32))
(assert (bvslt (bvudiv (bvnand bv_2 #xabeda659 ) (bvudiv #x77542ff8  #xf76f16fc )) (bvshl (bvashr #x26d0aabe  bv_3) (bvnor #x4ab6dbe9  bv_3))))
(assert (=> (or (and true bool_4) (bvult bv_0 #x550d64e5 )) (bvsle (bvurem #x9d5586d4  bv_1) (bvlshr #x8e204eb9  bv_1))))
(assert (not (=> (or false bool_4) (bvult bv_2 bv_1))))
(assert (bvsge (bvshl (bvxor bv_1 #xf065dcf4 ) (bvadd #x1a8982e5  bv_0)) (bvlshr (bvashr #x5c44c957  bv_1) (bvsub #xf1fae011  bv_2))))
(assert (xor (bvult (bvor bv_1 bv_4) (bvshl bv_2 #x6f8d533a )) (bvult (bvadd bv_2 #xef4b9936 ) (bvsmod bv_1 #x8995249a ))))
(check-sat)
(exit)
